data;

param num_top:=2;

#nodes and edges of the physical network
param n := 7;

set E := (1,2) (1,7) (2,3) (2,6) (2,7) (3,4) (3,6) (4,5) (4,6) (5,6) (6,7) (1,3) (5,7) ;

#nodes and edges of the virtual networks
set Nl[1] := 3 5 7 2 1 ;
set Nl[2] := 7 5 3 6 4 ;

set El[1] := (3,5) (5,7) (2,7) (1,2) (1,3) (1,7) (2,3) (3,7) (1,5) (2,5) ;
set El[2] := (5,7) (3,5) (3,6) (4,6) (4,7) (3,7) (4,5) (6,7) (5,6) (3,4) ;
